sing20170729.12
TTAA 79121 48698
99006 30458 19008 00081 29658 18011 92771 23656 17519
85506 19026 20515 70153 10857 22508 50588 05158 07507
40760 13770 12027 30972 30561 08030 25099 40356 07542
20247 51760 08562 15428 66360 07576 10663 75960 07534
88105 81557 07549
77134 07581 41113=
TTCC 79122 48698
70872 72167 26029 50071 67972 28512 30383 61176 08564
20641 53580 08066
88999
77188 08576 41718=
TTDD 7912/ 48698
11779 71366 22744 72366 33608 70169 44540 72168 55498
67772 66427 66773 77410 68372 88362 58977 99298 61376
11233 53980 22217 54779 33180 53580 44155 48183
21212 11952 11010 22933 18004 33885 25510 44824 29013
55793 27018 66715 25531 77675 27037 88608 30035 99559
29021 11547 30015 22533 27021 33514 26018 44498 29011
55477 26012 66456 26511 77441 24511 88432 21511 99409
20008 11403 22010 22398 24514 33394 24011 44385 17510
55378 14512 66373 12018 77345 10047 88309 08063 99296
09066 11272 09060 22250 10066 33188 08576 44155 08558=
